PREC   =  Normal
ISTART =  0
ICHARG =  2
ENCUT  =  450
ISYM   =  0
IBRION =  2
ISIF = 3
NSW    =  0
NELM   =  100
NELMIN =  5
NELMDL = -5
EDIFF  =  1E-4
EDIFFG = -0.01
ISMEAR =  0
SIGMA  =  0.05
LWAVE  = .FALSE.
LCHARG = .FALSE.
LREAL  =  A
NCORE =  4

# MAGNETIZATION
RWIGS = 1.286 1.302
ISPIN = 2
LORBIT = 11
LASPH      = .TRUE.
VOSKOWN    =  1      
LMAXMIX    =  4       
I_CONSTRAINED_M = 1
LAMBDA = 5
LNONCOLLINEAR = .TRUE.
LSORBIT = .FALSE. 
